\* Problem: Bin packing lr v2 *\

Minimize
 obj: + x_1 + x_2 + x_3 + x_4 + x_5 + x_6 + x_7 + x_8 + x_9 + x_10
 + x_11 + x_12 + x_13 + x_14 + x_15 + x_16 + x_17 + x_18 + x_19 + x_20
 + x_21 + x_22 + x_23 + x_24 + x_25 + x_26 + x_27 + x_28 + x_29 + x_30
 + x_31 + x_32 + x_33 + x_34 + x_35 + x_36 + x_37 + x_38 + x_39 + x_40
 + x_41 + x_42 + x_43 + x_44 + x_45 + x_46 + x_47 + x_48 + x_49 + x_50
 + x_51 + x_52

Subject To
 r_1: + x_19 + x_18 + x_17 + x_16 + x_15 + x_14 + x_13 + x_12 + x_11
 + x_10 + x_9 + x_8 + x_7 + 2 x_6 + 2 x_5 + 2 x_4 + 2 x_3 + 2 x_2
 + 3 x_1 >= 12
 r_2: + x_31 + x_30 + x_29 + x_28 + x_27 + x_26 + x_25 + x_24 + 2 x_23
 + 2 x_22 + 2 x_21 + 3 x_20 + x_10 + x_9 + x_8 + 2 x_7 + x_2 >= 14
 r_3: + x_38 + x_37 + x_36 + x_35 + x_34 + x_33 + 2 x_32 + x_24 + x_21
 + x_12 + 2 x_11 + x_8 + x_3 >= 6
 r_4: + x_42 + x_41 + x_40 + 2 x_39 + x_33 + x_25 + x_13 + x_4 >= 12
 r_5: + x_43 + x_34 + x_26 + x_14 >= 10
 r_6: + x_47 + x_46 + x_45 + 2 x_44 + x_40 + x_35 + x_27 + x_22 + x_15
 + x_9 + x_5 >= 6
 r_7: + x_48 + x_28 + x_16 >= 6
 r_8: + x_49 + x_45 + x_36 + x_29 + x_17 >= 12
 r_9: + x_51 + 3 x_50 + x_49 + x_48 + x_46 + x_43 + x_41 + x_37 + 2 x_30
 + x_24 + x_23 + 2 x_18 + x_15 + x_12 + x_10 + x_6 >= 12
 r_10: + 2 x_52 + x_51 + x_47 + x_42 + x_38 + x_31 + x_19 >= 9

End
